c File: data_files/evolved_graphs/g0175.col
c
c Auto generated graph
c
p edge 100 1569
e 1 2
e 1 8
e 1 9
e 1 11
e 1 12
e 1 13
e 1 14
e 1 15
e 1 16
e 1 18
e 1 19
e 1 20
e 1 21
e 1 22
e 1 25
e 1 26
e 1 28
e 1 29
e 1 30
e 1 33
e 1 35
e 1 36
e 1 37
e 1 38
e 1 39
e 1 40
e 1 41
e 1 42
e 1 43
e 1 44
e 1 45
e 1 46
e 1 47
e 1 48
e 1 49
e 1 50
e 1 51
e 1 52
e 1 53
e 1 54
e 1 55
e 1 56
e 1 57
e 1 58
e 1 59
e 1 60
e 1 61
e 1 62
e 1 63
e 1 64
e 1 65
e 1 66
e 1 67
e 1 70
e 1 72
e 1 73
e 1 74
e 1 76
e 1 77
e 2 8
e 2 9
e 2 12
e 2 13
e 2 14
e 2 15
e 2 17
e 2 18
e 2 19
e 2 20
e 2 21
e 2 22
e 2 25
e 2 27
e 2 28
e 2 30
e 2 33
e 2 34
e 2 35
e 2 36
e 2 38
e 2 39
e 2 40
e 2 41
e 2 42
e 2 43
e 2 44
e 2 45
e 2 46
e 2 47
e 2 48
e 2 49
e 2 50
e 2 51
e 2 52
e 2 53
e 2 54
e 2 55
e 2 57
e 2 58
e 2 60
e 2 61
e 2 62
e 2 63
e 2 64
e 2 65
e 2 66
e 2 67
e 2 68
e 2 70
e 2 72
e 2 73
e 2 74
e 2 77
e 2 92
e 3 9
e 3 10
e 3 11
e 3 12
e 3 13
e 3 14
e 3 15
e 3 16
e 3 17
e 3 18
e 3 19
e 3 21
e 3 25
e 3 26
e 3 27
e 3 28
e 3 31
e 3 32
e 3 33
e 3 34
e 3 35
e 3 38
e 3 41
e 3 42
e 3 43
e 3 44
e 3 45
e 3 47
e 3 49
e 3 74
e 3 77
e 3 78
e 3 80
e 3 81
e 3 82
e 3 83
e 3 84
e 3 85
e 3 86
e 3 87
e 4 8
e 4 9
e 4 10
e 4 11
e 4 12
e 4 13
e 4 14
e 4 16
e 4 17
e 4 18
e 4 19
e 4 20
e 4 21
e 4 22
e 4 25
e 4 26
e 4 27
e 4 30
e 4 31
e 4 33
e 4 34
e 4 35
e 4 36
e 4 37
e 4 38
e 4 39
e 4 40
e 4 41
e 4 43
e 4 44
e 4 46
e 4 47
e 4 48
e 4 49
e 4 52
e 4 77
e 4 78
e 4 79
e 4 80
e 4 81
e 4 82
e 4 83
e 4 84
e 4 85
e 4 86
e 4 87
e 4 91
e 4 95
e 5 6
e 5 8
e 5 9
e 5 10
e 5 11
e 5 12
e 5 13
e 5 14
e 5 15
e 5 16
e 5 17
e 5 18
e 5 19
e 5 21
e 5 22
e 5 26
e 5 27
e 5 28
e 5 29
e 5 30
e 5 31
e 5 32
e 5 33
e 5 35
e 5 38
e 5 39
e 5 40
e 5 41
e 5 42
e 5 43
e 5 44
e 5 48
e 5 49
e 5 50
e 5 53
e 5 77
e 5 78
e 5 79
e 5 81
e 5 82
e 5 83
e 5 84
e 5 85
e 5 87
e 6 8
e 6 10
e 6 11
e 6 12
e 6 13
e 6 14
e 6 15
e 6 16
e 6 18
e 6 20
e 6 21
e 6 22
e 6 28
e 6 30
e 6 31
e 6 32
e 6 33
e 6 36
e 6 37
e 6 38
e 6 39
e 6 40
e 6 41
e 6 42
e 6 43
e 6 44
e 6 46
e 6 47
e 6 48
e 6 50
e 6 71
e 6 77
e 6 78
e 6 79
e 6 80
e 6 82
e 6 83
e 6 84
e 6 86
e 6 87
e 6 92
e 6 99
e 7 8
e 7 9
e 7 10
e 7 11
e 7 12
e 7 13
e 7 14
e 7 15
e 7 16
e 7 17
e 7 18
e 7 20
e 7 21
e 7 22
e 7 26
e 7 27
e 7 28
e 7 30
e 7 31
e 7 34
e 7 36
e 7 38
e 7 39
e 7 40
e 7 44
e 7 47
e 7 48
e 7 49
e 7 50
e 7 51
e 7 68
e 7 77
e 7 78
e 7 79
e 7 80
e 7 81
e 7 82
e 7 83
e 7 84
e 7 85
e 7 86
e 8 10
e 8 14
e 8 20
e 8 22
e 8 25
e 8 26
e 8 27
e 8 28
e 8 32
e 8 33
e 8 38
e 8 42
e 8 44
e 8 45
e 8 46
e 8 47
e 8 49
e 8 50
e 8 67
e 8 77
e 8 78
e 8 80
e 8 81
e 8 82
e 8 83
e 8 84
e 8 85
e 8 86
e 8 87
e 9 13
e 9 20
e 9 21
e 9 22
e 9 27
e 9 29
e 9 32
e 9 34
e 9 35
e 9 36
e 9 39
e 9 41
e 9 43
e 9 44
e 9 45
e 9 46
e 9 48
e 9 49
e 9 50
e 9 54
e 9 77
e 9 78
e 9 79
e 9 80
e 9 81
e 9 82
e 9 83
e 9 84
e 9 85
e 9 86
e 9 87
e 9 97
e 10 11
e 10 20
e 10 22
e 10 25
e 10 29
e 10 30
e 10 32
e 10 34
e 10 39
e 10 40
e 10 41
e 10 43
e 10 45
e 10 48
e 10 49
e 10 54
e 10 71
e 10 77
e 10 78
e 10 80
e 10 81
e 10 83
e 10 84
e 10 85
e 10 86
e 10 87
e 11 13
e 11 21
e 11 26
e 11 28
e 11 29
e 11 30
e 11 32
e 11 34
e 11 35
e 11 36
e 11 37
e 11 39
e 11 41
e 11 42
e 11 43
e 11 44
e 11 45
e 11 46
e 11 47
e 11 48
e 11 49
e 11 50
e 11 53
e 11 70
e 11 75
e 11 78
e 11 79
e 11 81
e 11 82
e 11 83
e 11 84
e 11 85
e 11 87
e 12 15
e 12 22
e 12 32
e 12 34
e 12 36
e 12 37
e 12 39
e 12 40
e 12 41
e 12 43
e 12 44
e 12 45
e 12 46
e 12 47
e 12 48
e 12 49
e 12 76
e 12 77
e 12 79
e 12 80
e 12 81
e 12 82
e 12 83
e 12 84
e 12 86
e 12 87
e 12 92
e 13 34
e 13 35
e 13 37
e 13 39
e 13 42
e 13 44
e 13 45
e 13 48
e 13 50
e 13 52
e 13 77
e 13 78
e 13 79
e 13 80
e 13 81
e 13 82
e 13 83
e 13 84
e 13 85
e 13 86
e 13 87
e 13 91
e 13 92
e 14 28
e 14 31
e 14 34
e 14 35
e 14 36
e 14 37
e 14 38
e 14 39
e 14 42
e 14 45
e 14 46
e 14 47
e 14 49
e 14 68
e 14 77
e 14 78
e 14 79
e 14 80
e 14 81
e 14 82
e 14 83
e 14 84
e 14 85
e 14 86
e 14 87
e 15 33
e 15 36
e 15 39
e 15 40
e 15 41
e 15 42
e 15 43
e 15 44
e 15 45
e 15 46
e 15 47
e 15 50
e 15 53
e 15 60
e 15 77
e 15 78
e 15 79
e 15 80
e 15 81
e 15 82
e 15 83
e 15 84
e 15 85
e 15 86
e 15 87
e 16 30
e 16 34
e 16 35
e 16 36
e 16 39
e 16 40
e 16 41
e 16 42
e 16 47
e 16 50
e 16 61
e 16 78
e 16 79
e 16 80
e 16 81
e 16 82
e 16 83
e 16 85
e 16 87
e 16 89
e 16 92
e 16 94
e 16 97
e 17 32
e 17 35
e 17 36
e 17 37
e 17 42
e 17 43
e 17 45
e 17 47
e 17 48
e 17 49
e 17 52
e 17 67
e 17 71
e 17 77
e 17 78
e 17 79
e 17 80
e 17 81
e 17 82
e 17 83
e 17 84
e 17 85
e 17 86
e 17 87
e 18 28
e 18 31
e 18 35
e 18 36
e 18 38
e 18 39
e 18 40
e 18 41
e 18 42
e 18 43
e 18 45
e 18 46
e 18 48
e 18 50
e 18 67
e 18 77
e 18 78
e 18 79
e 18 80
e 18 81
e 18 82
e 18 83
e 18 84
e 18 85
e 18 86
e 18 87
e 19 34
e 19 35
e 19 37
e 19 38
e 19 40
e 19 41
e 19 42
e 19 43
e 19 44
e 19 45
e 19 46
e 19 47
e 19 48
e 19 49
e 19 50
e 19 69
e 19 77
e 19 78
e 19 79
e 19 80
e 19 81
e 19 82
e 19 83
e 19 84
e 19 85
e 19 86
e 19 87
e 20 23
e 20 28
e 20 34
e 20 35
e 20 36
e 20 38
e 20 39
e 20 40
e 20 41
e 20 42
e 20 43
e 20 44
e 20 45
e 20 47
e 20 48
e 20 49
e 20 63
e 20 77
e 20 78
e 20 80
e 20 81
e 20 82
e 20 83
e 20 84
e 20 85
e 20 86
e 20 87
e 21 26
e 21 27
e 21 35
e 21 36
e 21 37
e 21 38
e 21 39
e 21 40
e 21 41
e 21 43
e 21 44
e 21 45
e 21 46
e 21 48
e 21 49
e 21 50
e 21 58
e 21 63
e 21 64
e 21 78
e 21 79
e 21 81
e 21 82
e 21 83
e 21 84
e 21 85
e 21 86
e 21 87
e 22 36
e 22 38
e 22 39
e 22 40
e 22 41
e 22 44
e 22 45
e 22 46
e 22 49
e 22 50
e 22 72
e 22 77
e 22 78
e 22 79
e 22 80
e 22 81
e 22 82
e 22 84
e 22 86
e 22 87
e 23 35
e 23 36
e 23 37
e 23 38
e 23 39
e 23 40
e 23 42
e 23 44
e 23 45
e 23 46
e 23 47
e 23 48
e 23 49
e 23 50
e 23 58
e 23 66
e 23 73
e 23 75
e 23 77
e 23 78
e 23 79
e 23 80
e 23 81
e 23 82
e 23 83
e 23 84
e 23 85
e 23 86
e 23 87
e 23 89
e 24 28
e 24 34
e 24 35
e 24 36
e 24 37
e 24 39
e 24 40
e 24 41
e 24 44
e 24 45
e 24 48
e 24 49
e 24 50
e 24 77
e 24 78
e 24 81
e 24 82
e 24 83
e 24 84
e 24 85
e 24 86
e 25 37
e 25 39
e 25 41
e 25 79
e 25 80
e 25 81
e 25 82
e 25 83
e 25 86
e 26 34
e 26 70
e 26 79
e 26 80
e 26 81
e 26 82
e 26 83
e 26 84
e 26 85
e 27 38
e 27 41
e 27 79
e 27 80
e 27 81
e 27 82
e 27 83
e 27 84
e 27 85
e 27 86
e 28 36
e 28 41
e 28 79
e 28 80
e 28 81
e 28 82
e 28 83
e 28 84
e 28 85
e 28 86
e 29 70
e 29 79
e 29 80
e 29 81
e 29 82
e 29 83
e 29 84
e 29 87
e 30 32
e 30 54
e 30 79
e 30 80
e 30 81
e 30 82
e 30 83
e 30 84
e 30 85
e 30 86
e 30 89
e 30 90
e 30 92
e 30 93
e 30 94
e 30 95
e 30 96
e 30 97
e 30 98
e 30 99
e 31 43
e 31 85
e 31 89
e 31 90
e 31 91
e 31 92
e 31 93
e 31 94
e 31 95
e 31 96
e 31 97
e 31 98
e 31 99
e 31 100
e 32 35
e 32 69
e 32 85
e 32 87
e 32 89
e 32 90
e 32 91
e 32 92
e 32 93
e 32 94
e 32 95
e 32 96
e 32 97
e 32 98
e 32 99
e 32 100
e 33 70
e 33 89
e 33 90
e 33 91
e 33 92
e 33 93
e 33 94
e 33 95
e 33 96
e 33 97
e 33 98
e 33 100
e 34 37
e 34 38
e 34 86
e 34 87
e 34 89
e 34 90
e 34 91
e 34 93
e 34 94
e 34 95
e 34 96
e 34 97
e 34 98
e 34 100
e 35 37
e 35 43
e 35 86
e 35 89
e 35 90
e 35 91
e 35 92
e 35 93
e 35 94
e 35 95
e 35 96
e 35 97
e 35 98
e 35 99
e 35 100
e 36 38
e 36 42
e 36 89
e 36 90
e 36 91
e 36 92
e 36 93
e 36 94
e 36 95
e 36 96
e 36 97
e 36 98
e 36 99
e 36 100
e 37 85
e 37 86
e 37 87
e 37 89
e 37 90
e 37 91
e 37 92
e 37 93
e 37 94
e 37 96
e 37 97
e 37 98
e 37 99
e 38 86
e 38 89
e 38 90
e 38 91
e 38 92
e 38 93
e 38 94
e 38 95
e 38 96
e 38 97
e 38 98
e 39 85
e 39 89
e 39 90
e 39 91
e 39 92
e 39 93
e 39 94
e 39 95
e 39 96
e 39 97
e 39 98
e 39 99
e 39 100
e 40 43
e 40 87
e 40 89
e 40 90
e 40 91
e 40 92
e 40 93
e 40 94
e 40 95
e 40 96
e 40 97
e 40 98
e 40 99
e 40 100
e 41 43
e 41 87
e 41 89
e 41 90
e 41 91
e 41 92
e 41 93
e 41 95
e 41 96
e 41 97
e 41 98
e 41 99
e 42 72
e 42 73
e 42 74
e 42 75
e 42 76
e 42 77
e 42 78
e 42 79
e 42 80
e 42 81
e 42 85
e 42 86
e 42 87
e 42 89
e 42 90
e 42 91
e 42 92
e 42 93
e 42 94
e 42 95
e 42 96
e 42 97
e 42 98
e 42 99
e 42 100
e 43 72
e 43 73
e 43 74
e 43 75
e 43 76
e 43 77
e 43 78
e 43 79
e 43 80
e 43 81
e 43 86
e 43 89
e 43 90
e 43 91
e 43 92
e 43 93
e 43 94
e 43 95
e 43 96
e 43 97
e 43 98
e 43 99
e 43 100
e 44 58
e 44 59
e 44 80
e 44 89
e 44 90
e 44 91
e 44 92
e 44 93
e 44 94
e 44 95
e 44 96
e 44 97
e 44 98
e 44 99
e 44 100
e 45 51
e 45 54
e 45 84
e 45 90
e 45 91
e 45 92
e 45 93
e 45 94
e 45 95
e 45 96
e 45 97
e 45 98
e 45 99
e 45 100
e 46 48
e 46 63
e 46 89
e 46 90
e 46 91
e 46 92
e 46 93
e 46 94
e 46 95
e 46 96
e 46 97
e 46 98
e 46 99
e 46 100
e 47 69
e 47 74
e 47 77
e 47 84
e 47 85
e 47 86
e 47 87
e 47 89
e 47 90
e 47 91
e 47 92
e 47 93
e 47 95
e 47 96
e 47 97
e 47 98
e 47 99
e 48 80
e 48 83
e 48 84
e 48 85
e 48 86
e 48 87
e 48 90
e 48 93
e 48 94
e 48 95
e 48 96
e 48 97
e 48 98
e 48 99
e 49 55
e 49 67
e 49 84
e 49 86
e 49 87
e 49 89
e 49 90
e 49 92
e 49 93
e 49 94
e 49 95
e 49 96
e 49 97
e 49 98
e 49 99
e 50 53
e 50 55
e 50 58
e 50 59
e 50 72
e 50 75
e 50 84
e 50 85
e 50 86
e 50 87
e 50 89
e 50 90
e 50 91
e 50 92
e 50 93
e 50 95
e 50 97
e 50 98
e 50 99
e 50 100
e 51 58
e 51 59
e 51 77
e 51 85
e 51 86
e 51 87
e 51 89
e 51 91
e 51 92
e 51 93
e 51 94
e 51 95
e 51 96
e 51 97
e 51 98
e 51 99
e 51 100
e 52 61
e 52 69
e 52 71
e 52 74
e 52 84
e 52 85
e 52 86
e 52 87
e 52 89
e 52 90
e 52 91
e 52 92
e 52 95
e 52 96
e 52 98
e 52 99
e 52 100
e 53 58
e 53 60
e 53 63
e 53 65
e 53 67
e 53 71
e 53 84
e 53 85
e 53 86
e 53 87
e 53 89
e 53 90
e 53 91
e 53 92
e 53 93
e 53 94
e 53 95
e 53 96
e 53 97
e 53 98
e 53 99
e 53 100
e 54 67
e 54 68
e 54 74
e 54 79
e 54 84
e 54 85
e 54 86
e 54 87
e 54 88
e 54 90
e 54 91
e 54 92
e 54 93
e 54 95
e 54 96
e 54 97
e 54 98
e 54 100
e 55 58
e 55 72
e 55 78
e 55 84
e 55 85
e 55 86
e 55 87
e 55 89
e 55 90
e 55 91
e 55 92
e 55 94
e 55 95
e 55 97
e 55 98
e 55 99
e 55 100
e 56 80
e 56 84
e 56 85
e 56 86
e 56 87
e 56 89
e 56 90
e 56 91
e 56 92
e 56 94
e 56 95
e 56 96
e 56 97
e 56 98
e 56 99
e 56 100
e 57 68
e 57 75
e 57 84
e 57 85
e 57 87
e 57 89
e 57 90
e 57 91
e 57 92
e 57 93
e 57 94
e 57 95
e 57 96
e 57 98
e 57 99
e 57 100
e 58 64
e 58 67
e 58 68
e 58 70
e 58 72
e 58 83
e 58 84
e 58 85
e 58 86
e 58 87
e 58 89
e 58 90
e 58 91
e 58 92
e 58 93
e 58 94
e 58 96
e 58 97
e 58 99
e 58 100
e 59 84
e 59 85
e 59 86
e 59 87
e 59 89
e 59 90
e 59 91
e 59 92
e 59 93
e 59 94
e 59 95
e 59 97
e 59 98
e 59 99
e 59 100
e 60 70
e 60 76
e 60 84
e 60 85
e 60 86
e 60 87
e 60 89
e 60 90
e 60 92
e 60 93
e 60 94
e 60 95
e 60 96
e 60 97
e 60 98
e 60 99
e 60 100
e 61 73
e 61 78
e 61 84
e 61 85
e 61 86
e 61 87
e 61 88
e 61 89
e 61 90
e 61 91
e 61 92
e 61 93
e 61 94
e 61 95
e 61 96
e 61 97
e 61 98
e 61 99
e 61 100
e 62 70
e 62 71
e 62 84
e 62 85
e 62 86
e 62 87
e 62 88
e 62 89
e 62 90
e 62 91
e 62 92
e 62 93
e 62 94
e 62 95
e 62 96
e 62 97
e 62 98
e 62 99
e 62 100
e 63 66
e 63 83
e 63 84
e 63 85
e 63 86
e 63 87
e 63 88
e 63 89
e 63 90
e 63 91
e 63 92
e 63 93
e 63 94
e 63 96
e 63 97
e 63 98
e 63 99
e 63 100
e 64 67
e 64 81
e 64 84
e 64 85
e 64 86
e 64 87
e 64 88
e 64 93
e 64 97
e 64 98
e 65 82
e 65 84
e 65 85
e 65 86
e 65 87
e 65 89
e 65 91
e 65 96
e 65 100
e 66 84
e 66 85
e 66 86
e 66 87
e 66 88
e 66 89
e 66 90
e 66 91
e 66 94
e 66 95
e 66 96
e 66 97
e 66 100
e 67 84
e 67 85
e 67 86
e 67 87
e 67 88
e 67 89
e 67 91
e 67 92
e 67 93
e 67 95
e 67 96
e 67 100
e 68 70
e 68 73
e 68 80
e 68 84
e 68 85
e 68 86
e 68 87
e 68 88
e 68 89
e 68 90
e 68 91
e 68 92
e 68 94
e 68 95
e 68 99
e 69 70
e 69 79
e 69 83
e 69 84
e 69 85
e 69 86
e 69 87
e 69 89
e 69 91
e 69 94
e 69 95
e 69 96
e 69 97
e 69 98
e 69 99
e 70 84
e 70 85
e 70 86
e 70 87
e 70 88
e 70 89
e 70 96
e 70 97
e 70 99
e 71 84
e 71 85
e 71 86
e 71 87
e 71 88
e 71 89
e 71 90
e 71 91
e 71 94
e 71 96
e 71 98
e 72 84
e 72 85
e 72 86
e 72 87
e 72 88
e 72 91
e 72 93
e 72 95
e 72 97
e 72 98
e 72 99
e 73 79
e 73 84
e 73 85
e 73 86
e 73 88
e 73 91
e 73 94
e 73 96
e 73 98
e 74 75
e 74 80
e 74 84
e 74 85
e 74 86
e 74 87
e 74 90
e 74 93
e 74 96
e 74 97
e 74 98
e 74 99
e 74 100
e 75 79
e 75 84
e 75 85
e 75 86
e 75 87
e 75 88
e 75 89
e 75 94
e 76 84
e 76 85
e 76 86
e 76 87
e 77 84
e 77 85
e 77 86
e 77 87
e 77 91
e 77 98
e 78 84
e 78 86
e 78 87
e 78 96
e 79 83
e 79 84
e 79 85
e 79 86
e 79 87
e 79 91
e 80 84
e 80 85
e 80 87
e 80 88
e 80 90
e 80 91
e 80 97
e 80 98
e 81 82
e 81 84
e 81 85
e 81 86
e 81 87
e 81 91
e 82 86
e 82 95
e 83 84
e 83 85
e 83 87
e 84 88
e 86 89
e 86 90
e 86 99
e 88 100
e 89 91
e 90 92
e 90 94
e 90 97
e 91 96
e 92 93
e 92 98
e 93 96
e 94 98
e 95 96
e 95 97
e 96 98
e 96 99
